
Gurobi 6.5.0 (mac64) logging started Tue Mar 14 14:38:14 2017

Parameter OutputFlag unchanged
   Value: 1  Min: 0  Max: 1  Default: 1

Gurobi 6.5.0 (mac64) logging started Tue Mar 14 14:49:08 2017

Parameter OutputFlag unchanged
   Value: 1  Min: 0  Max: 1  Default: 1

Gurobi 6.5.0 (mac64) logging started Tue Mar 14 14:51:41 2017

Parameter OutputFlag unchanged
   Value: 1  Min: 0  Max: 1  Default: 1

Gurobi 6.5.0 (mac64) logging started Tue Mar 14 14:57:39 2017

Parameter OutputFlag unchanged
   Value: 1  Min: 0  Max: 1  Default: 1
